27	3

10	10	10	

0	0	0	0	3	2	3	4	
5	3	5	2	1	6	
6	5	4	3	2	5	7	
2	5	2	2	1	8	
1	4	1	4	1	9	
4	5	5	4	2	9	11	
4	3	5	2	2	10	12	
1	2	4	4	1	9	
1	3	2	2	2	13	16	
2	3	2	4	1	13	
4	3	3	2	2	14	15	
1	4	1	4	1	13	
5	1	4	4	1	17	
3	2	2	2	2	17	19	
3	5	5	4	1	18	
2	1	5	4	2	17	20	
2	4	5	4	2	22	23	
2	3	2	3	1	24	
2	5	3	3	1	21	
1	2	4	6	1	21	
2	1	6	2	1	25	
3	3	2	1	1	26	
2	1	0	4	1	25	
2	2	2	1	1	26	
1	0	1	3	1	27	
1	2	2	2	1	27	
0	0	0	0	0	
